

[LKWP_Main]	LKWP_GID	LKWP_ID	BS	Type	SKillID
0	1	1	1	1	0
1	1	2	2	1	0
2	1	3	3	1	0
3	1	4	4	1	0
4	1	5	5	1	0
5	1	6	6	1	0
6	2	7	1	1	0
7	2	8	2	1	0
8	2	9	3	1	0
9	2	10	4	1	0
10	2	11	5	1	0
11	2	12	6	1	0
12	3	13	1	1	0
13	3	14	2	1	0
14	3	15	3	1	0
15	3	16	4	1	0
16	3	17	5	1	0
17	3	18	6	1	0
18	4	19	1	1	0
19	4	20	2	1	0
20	4	21	3	1	0
21	4	22	4	1	0
22	4	23	5	1	0
23	4	24	6	1	0
24	5	25	1	1	0
25	5	26	2	1	0
26	5	27	3	1	0
27	5	28	4	1	0
28	5	29	5	1	0
29	5	30	6	1	0
30	6	31	1	2	474
31	6	32	2	2	474
32	6	33	3	2	474
33	6	34	4	2	474
34	6	35	5	2	474
35	6	36	6	2	474

[LKWP_Value]	LKWP_ID	Order	ForceID	Value
0	1	0	3	200
1	1	1	4	70
2	1	2	6	1000
3	1	3	8	70
4	1	4	9	15
5	1	5	34	3
6	1	6	35	3
7	1	7	30	5
8	1	8	32	5
9	1	9	5	40
10	2	0	3	200
11	2	1	4	70
12	2	2	6	1000
13	2	3	8	70
14	2	4	9	15
15	2	5	34	3
16	2	6	35	3
17	2	7	30	5
18	2	8	32	5
19	2	9	5	40
20	3	0	3	70
21	3	1	4	200
22	3	2	6	1000
23	3	3	8	70
24	3	4	9	15
25	3	5	34	3
26	3	6	35	3
27	3	7	32	5
28	3	8	30	5
29	3	9	5	40
30	4	0	3	70
31	4	1	4	220
32	4	2	6	1000
33	4	3	8	70
34	4	4	9	20
35	4	5	34	3
36	4	6	35	3
37	4	7	32	5
38	4	8	30	5
39	4	9	5	40
40	5	0	3	200
41	5	1	4	70
42	5	2	6	1000
43	5	3	8	70
44	5	4	9	15
45	5	5	34	3
46	5	6	35	3
47	5	7	30	5
48	5	8	32	5
49	5	9	5	70
50	6	0	3	200
51	6	1	4	70
52	6	2	6	1000
53	6	3	8	70
54	6	4	9	15
55	6	5	34	3
56	6	6	35	3
57	6	7	30	5
58	6	8	32	5
59	6	9	5	40
60	7	0	3	250
61	7	1	4	100
62	7	2	6	1300
63	7	3	8	70
64	7	4	9	15
65	7	5	34	3
66	7	6	35	3
67	7	7	30	5
68	7	8	32	5
69	7	9	5	60
70	8	0	3	250
71	8	1	4	100
72	8	2	6	1300
73	8	3	8	70
74	8	4	9	15
75	8	5	34	3
76	8	6	35	3
77	8	7	30	5
78	8	8	32	5
79	8	9	5	60
80	9	0	3	100
81	9	1	4	250
82	9	2	6	1300
83	9	3	8	70
84	9	4	9	15
85	9	5	34	3
86	9	6	35	3
87	9	7	32	5
88	9	8	30	5
89	9	9	5	60
90	10	0	3	100
91	10	1	4	270
92	10	2	6	1300
93	10	3	8	70
94	10	4	9	20
95	10	5	34	3
96	10	6	35	3
97	10	7	32	5
98	10	8	30	5
99	10	9	5	60
100	11	0	3	250
101	11	1	4	100
102	11	2	6	1300
103	11	3	8	70
104	11	4	9	15
105	11	5	34	3
106	11	6	35	3
107	11	7	30	5
108	11	8	32	5
109	11	9	5	90
110	12	0	3	250
111	12	1	4	100
112	12	2	6	1300
113	12	3	8	70
114	12	4	9	15
115	12	5	34	3
116	12	6	35	3
117	12	7	30	5
118	12	8	32	5
119	12	9	5	60
120	13	0	3	300
121	13	1	4	130
122	13	2	6	1600
123	13	3	8	70
124	13	4	9	15
125	13	5	34	3
126	13	6	35	3
127	13	7	30	5
128	13	8	32	5
129	13	9	5	80
130	14	0	3	300
131	14	1	4	130
132	14	2	6	1600
133	14	3	8	70
134	14	4	9	15
135	14	5	34	3
136	14	6	35	3
137	14	7	30	5
138	14	8	32	5
139	14	9	5	80
140	15	0	3	130
141	15	1	4	300
142	15	2	6	1600
143	15	3	8	70
144	15	4	9	15
145	15	5	34	3
146	15	6	35	3
147	15	7	32	5
148	15	8	30	5
149	15	9	5	80
150	16	0	3	130
151	16	1	4	320
152	16	2	6	1600
153	16	3	8	70
154	16	4	9	20
155	16	5	34	3
156	16	6	35	3
157	16	7	32	5
158	16	8	30	5
159	16	9	5	80
160	17	0	3	300
161	17	1	4	130
162	17	2	6	1600
163	17	3	8	70
164	17	4	9	15
165	17	5	34	3
166	17	6	35	3
167	17	7	30	5
168	17	8	32	5
169	17	9	5	110
170	18	0	3	300
171	18	1	4	130
172	18	2	6	1600
173	18	3	8	70
174	18	4	9	15
175	18	5	34	3
176	18	6	35	3
177	18	7	30	5
178	18	8	32	5
179	18	9	5	80
180	19	0	3	330
181	19	1	4	160
182	19	2	6	1900
183	19	3	8	70
184	19	4	9	15
185	19	5	34	3
186	19	6	35	3
187	19	7	30	5
188	19	8	32	5
189	19	9	5	100
190	20	0	3	330
191	20	1	4	160
192	20	2	6	1900
193	20	3	8	70
194	20	4	9	15
195	20	5	34	3
196	20	6	35	3
197	20	7	30	5
198	20	8	32	5
199	20	9	5	100
200	21	0	3	160
201	21	1	4	330
202	21	2	6	1900
203	21	3	8	70
204	21	4	9	15
205	21	5	34	3
206	21	6	35	3
207	21	7	32	5
208	21	8	30	5
209	21	9	5	100
210	22	0	3	160
211	22	1	4	350
212	22	2	6	1900
213	22	3	8	70
214	22	4	9	20
215	22	5	34	3
216	22	6	35	3
217	22	7	32	5
218	22	8	30	5
219	22	9	5	100
220	23	0	3	330
221	23	1	4	160
222	23	2	6	1900
223	23	3	8	70
224	23	4	9	15
225	23	5	34	3
226	23	6	35	3
227	23	7	30	5
228	23	8	32	5
229	23	9	5	130
230	24	0	3	330
231	24	1	4	160
232	24	2	6	1900
233	24	3	8	70
234	24	4	9	15
235	24	5	34	3
236	24	6	35	3
237	24	7	30	5
238	24	8	32	5
239	24	9	5	100
240	25	0	3	370
241	25	1	4	190
242	25	2	6	2200
243	25	3	8	70
244	25	4	9	15
245	25	5	34	3
246	25	6	35	3
247	25	7	30	5
248	25	8	32	5
249	25	9	5	120
250	26	0	3	370
251	26	1	4	190
252	26	2	6	2200
253	26	3	8	70
254	26	4	9	15
255	26	5	34	3
256	26	6	35	3
257	26	7	30	5
258	26	8	32	5
259	26	9	5	120
260	27	0	3	190
261	27	1	4	370
262	27	2	6	2200
263	27	3	8	70
264	27	4	9	15
265	27	5	34	3
266	27	6	35	3
267	27	7	32	5
268	27	8	30	5
269	27	9	5	120
270	28	0	3	190
271	28	1	4	390
272	28	2	6	2200
273	28	3	8	70
274	28	4	9	15
275	28	5	34	3
276	28	6	35	3
277	28	7	32	5
278	28	8	30	5
279	28	9	5	120
280	29	0	3	370
281	29	1	4	190
282	29	2	6	2200
283	29	3	8	70
284	29	4	9	15
285	29	5	34	3
286	29	6	35	3
287	29	7	30	5
288	29	8	32	5
289	29	9	5	150
290	30	0	3	370
291	30	1	4	190
292	30	2	6	2200
293	30	3	8	70
294	30	4	9	15
295	30	5	34	3
296	30	6	35	3
297	30	7	30	5
298	30	8	32	5
299	30	9	5	120
300	31	0	113	400
301	31	1	6	2000
302	31	2	9	15
303	31	3	8	100
304	31	4	114	10
305	32	0	113	400
306	32	1	6	2000
307	32	2	9	15
308	32	3	8	100
309	32	4	114	10
310	33	0	113	400
311	33	1	6	2000
312	33	2	9	15
313	33	3	8	100
314	33	4	114	10
315	34	0	113	400
316	34	1	6	2000
317	34	2	9	15
318	34	3	8	100
319	34	4	114	10
320	35	0	113	400
321	35	1	6	2000
322	35	2	9	15
323	35	3	8	100
324	35	4	114	10
325	36	0	113	400
326	36	1	6	2000
327	36	2	9	15
328	36	3	8	100
329	36	4	114	10
